bestever    1688    in generation 0
[16, 13, 14, 8, 18, 9, 1, 12, 2, 17, 5, 20, 7, 19, 15, 4, 10, 3, 11, 6, 16, 13, 14, 8, 18, 9, 1, 12, 2, 17, 5, 20, 7, 19, 15, 4, 10, 3, 11, 6, 16, 13, 14, 8, 18, 9, 1, 12, 2, 17, 5, 20, 7, 19, 15, 4, 10, 3, 11, 6, 16, 13, 14, 8, 18, 9, 1, 12, 2, 17, 5, 20, 7, 19, 15, 4, 10, 3, 11, 6, 16, 13, 14, 8, 18, 9, 1, 12, 2, 17, 5, 20, 7, 19, 15, 4, 10, 3, 11, 6, 16, 13, 14, 8, 18, 9, 1, 12, 2, 17, 5, 20, 7, 19, 15, 4, 10, 3, 11, 6, 16, 13, 14, 8, 18, 9, 1, 12, 2, 17, 5, 20, 7, 19, 15, 4, 10, 3, 11, 6, 16, 13, 14, 8, 18, 9, 1, 12, 2, 17, 5, 20, 7, 19, 15, 4, 10, 3, 11, 6, 16, 13, 14, 8, 18, 9, 1, 12, 2, 17, 5, 20, 7, 19, 15, 4, 10, 3, 11, 6, 16, 13, 14, 8, 18, 9, 1, 12, 2, 17, 5, 20, 7, 19, 15, 4, 10, 3, 11, 6]
bestever    1679    in generation 102
[16, 13, 14, 8, 18, 9, 1, 12, 2, 17, 5, 7, 20, 19, 15, 4, 10, 3, 11, 6, 16, 13, 14, 8, 18, 9, 1, 12, 2, 17, 5, 7, 20, 19, 15, 4, 10, 3, 11, 6, 16, 13, 14, 8, 18, 9, 1, 12, 2, 17, 5, 7, 20, 19, 15, 4, 10, 3, 11, 6, 16, 13, 14, 8, 18, 9, 1, 2, 12, 17, 5, 7, 20, 19, 15, 4, 10, 3, 11, 6, 16, 13, 14, 8, 18, 9, 1, 2, 12, 17, 5, 7, 20, 19, 15, 4, 10, 3, 11, 6, 16, 13, 8, 18, 9, 1, 2, 14, 12, 17, 5, 7, 20, 19, 15, 4, 10, 3, 11, 6, 16, 13, 8, 18, 9, 1, 14, 2, 12, 17, 5, 7, 20, 19, 15, 4, 10, 3, 11, 6, 16, 13, 8, 18, 9, 1, 14, 2, 17, 12, 5, 7, 20, 19, 15, 4, 10, 3, 11, 6, 16, 8, 18, 9, 1, 14, 13, 2, 12, 17, 5, 7, 20, 19, 15, 4, 10, 3, 11, 6, 16, 8, 18, 9, 1, 14, 13, 12, 2, 17, 5, 7, 20, 19, 15, 4, 10, 3, 11, 6]
bestever    1660    in generation 113
[16, 13, 14, 8, 18, 9, 1, 12, 2, 17, 5, 7, 20, 19, 15, 4, 10, 3, 11, 6, 16, 13, 14, 8, 18, 9, 1, 12, 2, 17, 5, 7, 20, 19, 15, 4, 10, 3, 11, 6, 16, 13, 14, 8, 18, 9, 1, 12, 2, 17, 5, 7, 20, 19, 15, 4, 10, 3, 11, 6, 16, 13, 14, 8, 18, 9, 1, 2, 12, 17, 5, 7, 20, 19, 15, 4, 10, 3, 11, 6, 16, 13, 14, 8, 18, 9, 1, 2, 12, 17, 5, 7, 20, 19, 15, 4, 10, 3, 11, 6, 16, 13, 8, 18, 9, 1, 2, 14, 12, 17, 5, 7, 20, 19, 15, 4, 10, 3, 11, 6, 16, 13, 8, 18, 9, 1, 14, 2, 12, 17, 5, 7, 20, 19, 15, 4, 10, 3, 11, 6, 16, 13, 8, 18, 9, 1, 14, 16, 8, 18, 9, 1, 14, 13, 2, 12, 17, 5, 7, 20, 19, 15, 4, 10, 3, 11, 6, 2, 12, 17, 5, 7, 20, 19, 15, 4, 10, 3, 11, 6, 16, 8, 18, 9, 1, 14, 13, 12, 2, 17, 5, 7, 20, 19, 15, 4, 10, 3, 11, 6]
bestever    1659    in generation 123
[16, 13, 14, 8, 18, 9, 1, 12, 2, 17, 5, 7, 20, 19, 15, 4, 10, 3, 11, 6, 16, 13, 14, 8, 18, 9, 1, 12, 2, 17, 5, 7, 20, 19, 15, 4, 10, 3, 11, 6, 16, 13, 14, 8, 18, 9, 1, 12, 2, 17, 5, 7, 20, 19, 15, 4, 10, 3, 11, 6, 16, 13, 14, 8, 18, 9, 1, 2, 12, 17, 5, 7, 20, 19, 15, 4, 10, 3, 11, 6, 16, 13, 14, 8, 18, 9, 1, 2, 12, 17, 5, 7, 20, 19, 15, 4, 10, 3, 11, 6, 16, 13, 8, 18, 9, 1, 2, 14, 12, 17, 5, 7, 20, 19, 15, 4, 10, 3, 11, 6, 16, 13, 8, 18, 9, 1, 14, 16, 8, 18, 9, 1, 16, 8, 14, 13, 2, 12, 17, 5, 7, 20, 19, 15, 4, 10, 3, 11, 6, 18, 9, 1, 14, 13, 2, 12, 17, 5, 7, 20, 19, 15, 4, 10, 3, 11, 6, 2, 12, 17, 5, 7, 20, 19, 15, 4, 10, 3, 11, 6, 16, 8, 18, 9, 1, 14, 13, 12, 2, 17, 5, 7, 20, 19, 15, 4, 10, 3, 11, 6]
bestever    1653    in generation 225
[16, 13, 14, 8, 18, 9, 1, 12, 2, 5, 17, 7, 20, 19, 15, 4, 10, 3, 11, 6, 16, 13, 14, 8, 18, 9, 1, 12, 2, 5, 17, 7, 20, 19, 15, 4, 10, 3, 11, 6, 16, 13, 14, 8, 18, 9, 1, 12, 2, 5, 17, 7, 20, 19, 15, 4, 10, 3, 11, 6, 16, 13, 14, 8, 18, 9, 1, 2, 12, 5, 17, 7, 20, 19, 15, 4, 10, 3, 11, 6, 16, 13, 14, 8, 18, 9, 1, 2, 12, 5, 17, 7, 20, 19, 15, 4, 10, 3, 11, 6, 16, 13, 8, 18, 9, 1, 14, 2, 12, 5, 17, 7, 20, 19, 15, 4, 10, 3, 11, 6, 16, 8, 18, 9, 1, 14, 13, 2, 12, 5, 17, 7, 20, 19, 15, 4, 10, 3, 11, 6, 16, 8, 18, 9, 1, 14, 13, 2, 12, 5, 17, 7, 20, 19, 15, 4, 10, 3, 11, 6, 16, 8, 18, 9, 1, 14, 13, 2, 12, 5, 17, 7, 20, 19, 15, 4, 10, 3, 11, 6, 16, 8, 18, 9, 1, 14, 13, 12, 2, 5, 17, 7, 20, 19, 15, 4, 10, 3, 11, 6]
bestever    1647    in generation 316
[16, 13, 14, 8, 18, 9, 1, 2, 12, 5, 17, 16, 13, 14, 7, 20, 19, 15, 4, 10, 3, 11, 8, 18, 9, 1, 12, 2, 5, 17, 7, 20, 19, 15, 4, 10, 3, 11, 6, 6, 16, 13, 14, 8, 18, 9, 1, 12, 2, 5, 17, 16, 13, 14, 8, 18, 9, 1, 2, 12, 5, 7, 20, 19, 15, 4, 10, 3, 11, 6, 17, 7, 20, 19, 15, 4, 16, 13, 14, 8, 18, 9, 1, 2, 12, 5, 10, 3, 11, 6, 17, 7, 20, 19, 15, 4, 10, 3, 11, 6, 16, 13, 8, 18, 9, 1, 14, 16, 8, 18, 9, 1, 14, 16, 8, 18, 9, 1, 14, 13, 2, 12, 5, 17, 7, 20, 19, 15, 4, 10, 3, 11, 6, 2, 12, 5, 17, 7, 20, 19, 15, 4, 10, 3, 11, 6, 13, 2, 12, 5, 17, 7, 20, 19, 15, 4, 10, 3, 11, 6, 16, 8, 18, 9, 1, 14, 16, 8, 18, 9, 1, 14, 13, 2, 12, 5, 17, 7, 20, 19, 15, 4, 10, 3, 11, 6, 13, 2, 12, 5, 17, 7, 20, 19, 15, 4, 10, 3, 11, 6]
bestever    1636    in generation 429
[16, 13, 14, 8, 18, 9, 1, 2, 12, 5, 17, 4, 7, 20, 19, 10, 15, 3, 11, 6, 16, 13, 14, 8, 18, 9, 1, 12, 2, 5, 17, 4, 7, 20, 19, 10, 15, 3, 11, 6, 16, 13, 14, 8, 18, 9, 1, 12, 2, 5, 17, 7, 4, 20, 19, 15, 10, 3, 11, 6, 16, 13, 14, 8, 18, 9, 1, 2, 12, 5, 17, 7, 4, 20, 19, 15, 10, 3, 11, 6, 16, 13, 14, 8, 18, 9, 1, 2, 12, 5, 17, 7, 4, 20, 19, 15, 10, 3, 11, 6, 16, 13, 8, 18, 9, 1, 14, 2, 12, 5, 17, 7, 4, 20, 19, 15, 10, 3, 11, 6, 16, 8, 18, 9, 1, 14, 13, 2, 12, 5, 17, 7, 4, 20, 19, 15, 10, 3, 11, 6, 16, 8, 18, 9, 1, 14, 13, 2, 12, 5, 17, 7, 4, 20, 19, 15, 10, 3, 11, 6, 16, 8, 18, 9, 1, 14, 13, 2, 12, 5, 17, 7, 4, 20, 19, 15, 10, 3, 11, 6, 16, 8, 18, 9, 1, 14, 13, 2, 12, 5, 17, 7, 4, 20, 19, 15, 10, 3, 11, 6]
bestever    1627    in generation 502
[16, 13, 14, 8, 18, 9, 1, 2, 12, 5, 17, 4, 7, 20, 19, 10, 15, 3, 11, 6, 16, 13, 14, 8, 18, 9, 1, 12, 2, 5, 17, 4, 7, 20, 16, 13, 14, 8, 18, 9, 1, 12, 2, 5, 17, 7, 4, 20, 19, 15, 10, 3, 11, 6, 16, 16, 13, 14, 8, 18, 9, 1, 2, 12, 5, 17, 7, 4, 13, 8, 18, 9, 1, 14, 2, 12, 5, 20, 19, 15, 10, 3, 11, 6, 17, 7, 4, 20, 19, 15, 10, 3, 11, 16, 13, 8, 6, 18, 9, 1, 14, 2, 12, 5, 17, 7, 4, 20, 19, 15, 10, 3, 11, 6, 16, 8, 18, 9, 1, 14, 13, 2, 12, 5, 17, 7, 4, 20, 19, 15, 16, 8, 18, 19, 15, 10, 3, 9, 1, 14, 13, 2, 12, 5, 17, 7, 4, 20, 19, 15, 10, 3, 11, 6, 10, 3, 11, 6, 11, 6, 16, 8, 18, 9, 1, 14, 13, 2, 12, 5, 17, 7, 4, 20, 19, 15, 10, 3, 11, 6, 16, 8, 18, 9, 1, 14, 13, 2, 12, 5, 17, 7, 4, 20, 19, 15, 10, 3, 11, 6]
bestever    1620    in generation 604
[16, 13, 14, 8, 1, 18, 9, 2, 12, 5, 17, 4, 7, 20, 19, 10, 15, 3, 11, 6, 16, 13, 14, 8, 1, 18, 9, 12, 2, 5, 17, 4, 7, 20, 19, 15, 10, 3, 11, 6, 16, 13, 14, 8, 1, 18, 9, 12, 2, 5, 17, 7, 4, 20, 19, 15, 10, 3, 11, 6, 16, 13, 14, 8, 1, 18, 9, 2, 12, 5, 17, 7, 4, 20, 19, 15, 10, 3, 11, 6, 16, 13, 8, 1, 18, 9, 14, 2, 12, 5, 17, 7, 4, 20, 19, 15, 10, 3, 11, 6, 16, 13, 8, 1, 18, 9, 14, 2, 12, 5, 17, 7, 4, 20, 19, 15, 10, 3, 11, 6, 16, 8, 1, 18, 9, 14, 13, 2, 12, 5, 17, 7, 4, 20, 19, 15, 10, 3, 11, 6, 16, 8, 1, 18, 9, 14, 13, 2, 12, 5, 17, 7, 4, 20, 19, 15, 10, 3, 11, 6, 16, 8, 1, 18, 9, 14, 13, 2, 12, 5, 17, 7, 4, 20, 19, 15, 10, 3, 11, 6, 16, 8, 1, 18, 9, 14, 13, 2, 12, 5, 17, 7, 4, 20, 19, 15, 10, 3, 11, 6]
bestever    1610    in generation 709
[16, 13, 14, 8, 1, 18, 9, 12, 5, 2, 17, 4, 7, 20, 19, 10, 15, 3, 11, 6, 16, 13, 14, 8, 1, 18, 9, 12, 5, 17, 2, 7, 4, 20, 19, 15, 10, 3, 11, 6, 16, 13, 14, 8, 1, 18, 9, 12, 5, 2, 17, 7, 4, 20, 19, 15, 10, 3, 11, 6, 16, 13, 8, 1, 18, 9, 14, 12, 5, 2, 17, 7, 4, 20, 19, 15, 10, 3, 11, 6, 16, 13, 8, 1, 18, 9, 14, 12, 5, 2, 17, 7, 4, 20, 19, 15, 10, 3, 11, 6, 16, 13, 8, 1, 18, 9, 14, 12, 5, 2, 17, 7, 4, 20, 19, 15, 10, 3, 11, 6, 16, 8, 1, 18, 9, 14, 13, 12, 5, 2, 17, 7, 4, 20, 19, 15, 10, 3, 11, 6, 16, 8, 1, 18, 9, 14, 13, 12, 5, 2, 17, 7, 4, 20, 19, 15, 10, 3, 11, 6, 16, 8, 1, 18, 9, 14, 13, 12, 5, 2, 17, 7, 4, 20, 19, 15, 10, 3, 11, 6, 16, 8, 1, 18, 9, 14, 13, 12, 5, 2, 17, 7, 4, 20, 19, 15, 10, 3, 11, 6]
bestever    1604    in generation 725
[16, 13, 14, 8, 1, 18, 9, 12, 5, 2, 17, 4, 7, 20, 19, 16, 13, 14, 8, 1, 18, 9, 15, 10, 3, 11, 6, 16, 13, 14, 12, 5, 2, 17, 7, 4, 20, 19, 15, 10, 3, 11, 6, 8, 1, 18, 9, 12, 5, 2, 17, 7, 4, 20, 19, 15, 10, 3, 11, 6, 16, 13, 8, 1, 18, 9, 14, 12, 5, 2, 17, 7, 4, 20, 19, 15, 10, 3, 11, 6, 16, 13, 8, 1, 18, 9, 14, 12, 5, 2, 17, 7, 4, 20, 19, 15, 10, 3, 11, 6, 16, 13, 8, 1, 18, 9, 14, 12, 5, 2, 17, 7, 4, 20, 19, 15, 10, 3, 16, 8, 11, 6, 1, 18, 9, 14, 13, 12, 5, 2, 17, 7, 4, 20, 19, 15, 10, 3, 11, 6, 16, 8, 1, 18, 9, 14, 13, 12, 5, 2, 17, 7, 4, 20, 19, 15, 10, 3, 11, 6, 16, 8, 1, 18, 9, 14, 13, 12, 5, 2, 17, 7, 4, 20, 19, 15, 10, 3, 11, 6, 16, 8, 1, 18, 9, 14, 13, 12, 5, 2, 17, 7, 4, 20, 19, 15, 10, 3, 11, 6]
bestever    1602    in generation 827
[16, 13, 14, 8, 1, 18, 9, 12, 5, 2, 10, 17, 4, 7, 20, 19, 15, 3, 11, 6, 16, 13, 14, 8, 1, 18, 9, 12, 5, 2, 10, 17, 7, 4, 20, 19, 15, 3, 11, 6, 16, 13, 14, 8, 1, 18, 9, 12, 5, 2, 10, 17, 7, 4, 20, 19, 15, 3, 11, 6, 16, 13, 8, 1, 18, 9, 14, 12, 5, 2, 10, 17, 7, 4, 20, 19, 15, 3, 11, 6, 16, 13, 8, 1, 18, 9, 14, 12, 5, 2, 10, 17, 7, 4, 20, 19, 15, 3, 11, 6, 16, 13, 8, 1, 18, 9, 14, 12, 5, 2, 10, 17, 7, 4, 20, 19, 15, 3, 11, 6, 16, 8, 1, 18, 9, 14, 13, 12, 5, 2, 10, 17, 7, 4, 20, 19, 15, 3, 11, 6, 16, 8, 1, 18, 9, 14, 13, 12, 5, 2, 10, 17, 7, 4, 20, 19, 15, 3, 11, 6, 16, 8, 1, 18, 9, 14, 13, 12, 5, 2, 10, 17, 7, 4, 20, 19, 15, 3, 11, 6, 16, 8, 1, 18, 9, 14, 13, 12, 5, 2, 10, 17, 7, 4, 20, 19, 15, 3, 11, 6]
bestever    1598    in generation 932
[16, 13, 8, 14, 1, 18, 9, 12, 5, 2, 17, 4, 7, 20, 15, 10, 3, 19, 11, 6, 16, 13, 14, 8, 1, 18, 9, 12, 5, 2, 17, 7, 4, 20, 15, 10, 3, 19, 11, 6, 16, 13, 14, 8, 1, 18, 9, 12, 5, 2, 17, 7, 4, 20, 15, 10, 3, 19, 11, 6, 16, 13, 8, 1, 18, 9, 14, 12, 5, 2, 17, 7, 4, 20, 15, 10, 3, 19, 11, 6, 16, 13, 8, 1, 18, 9, 14, 12, 5, 2, 17, 7, 4, 20, 15, 10, 3, 19, 11, 6, 16, 13, 8, 1, 18, 9, 14, 12, 5, 2, 17, 7, 4, 20, 15, 10, 3, 19, 11, 6, 16, 8, 1, 18, 9, 14, 13, 12, 5, 2, 17, 7, 4, 20, 15, 10, 3, 19, 11, 6, 16, 8, 1, 18, 9, 14, 13, 12, 5, 2, 17, 7, 4, 20, 15, 10, 3, 19, 11, 6, 16, 8, 1, 18, 9, 14, 13, 12, 5, 2, 17, 7, 4, 20, 15, 10, 3, 19, 11, 6, 16, 8, 1, 18, 9, 14, 13, 12, 5, 2, 17, 7, 4, 20, 15, 10, 3, 19, 11, 6]
bestever    1594    in generation 1040
[16, 13, 8, 14, 1, 18, 9, 12, 5, 4, 2, 7, 20, 15, 10, 19, 3, 6, 11, 17, 16, 13, 14, 8, 1, 18, 9, 12, 5, 2, 4, 7, 20, 15, 10, 19, 3, 6, 11, 17, 16, 13, 14, 8, 1, 18, 9, 12, 5, 2, 4, 7, 20, 15, 10, 19, 3, 11, 6, 17, 16, 13, 8, 1, 18, 9, 14, 12, 5, 2, 4, 7, 20, 15, 10, 19, 3, 11, 6, 17, 16, 13, 8, 1, 18, 9, 14, 12, 5, 2, 4, 7, 20, 15, 10, 19, 3, 11, 6, 17, 16, 13, 8, 1, 18, 9, 14, 12, 5, 2, 4, 7, 20, 15, 10, 19, 3, 11, 6, 17, 16, 8, 1, 18, 9, 14, 13, 12, 5, 2, 4, 7, 20, 15, 10, 19, 3, 11, 6, 17, 16, 8, 1, 18, 9, 14, 13, 12, 5, 2, 4, 7, 20, 15, 10, 19, 3, 11, 6, 17, 16, 8, 1, 18, 9, 14, 13, 12, 5, 2, 4, 7, 20, 15, 10, 19, 3, 11, 6, 17, 16, 8, 1, 18, 9, 14, 13, 12, 5, 2, 4, 7, 20, 15, 10, 19, 3, 6, 11, 17]
bestever    1580    in generation 1154
[16, 13, 8, 14, 18, 9, 12, 5, 4, 2, 20, 7, 15, 10, 1, 19, 3, 6, 11, 17, 16, 13, 14, 8, 18, 9, 12, 5, 2, 4, 20, 7, 15, 10, 1, 19, 3, 11, 6, 17, 16, 13, 14, 8, 18, 9, 12, 5, 2, 4, 20, 7, 15, 10, 1, 19, 3, 11, 6, 17, 16, 13, 8, 18, 9, 14, 12, 5, 2, 4, 20, 7, 15, 1, 10, 19, 3, 11, 6, 17, 16, 13, 8, 18, 9, 14, 12, 5, 2, 4, 20, 7, 15, 1, 10, 19, 3, 11, 6, 17, 16, 13, 8, 18, 9, 14, 12, 5, 2, 4, 20, 7, 15, 1, 10, 19, 3, 11, 6, 17, 16, 8, 18, 9, 14, 13, 12, 5, 2, 4, 20, 7, 1, 15, 10, 19, 3, 11, 6, 17, 16, 8, 18, 9, 14, 13, 12, 5, 2, 4, 20, 7, 1, 15, 10, 19, 3, 11, 6, 17, 16, 8, 18, 9, 14, 13, 12, 5, 2, 4, 20, 7, 1, 15, 10, 19, 3, 11, 6, 17, 8, 16, 18, 9, 14, 13, 12, 5, 2, 4, 20, 7, 1, 15, 10, 19, 3, 6, 11, 17]
bestever    1578    in generation 1271
[16, 13, 8, 14, 18, 9, 12, 5, 4, 2, 20, 7, 15, 1, 10, 3, 19, 6, 11, 17, 16, 13, 14, 8, 18, 9, 12, 5, 2, 4, 20, 7, 15, 1, 10, 3, 19, 11, 6, 17, 16, 13, 14, 8, 18, 9, 12, 5, 2, 4, 20, 7, 15, 1, 10, 3, 19, 11, 6, 17, 16, 13, 8, 18, 9, 14, 12, 5, 2, 4, 20, 7, 1, 15, 10, 3, 19, 11, 6, 17, 16, 13, 8, 18, 9, 14, 12, 5, 2, 4, 20, 7, 1, 15, 10, 3, 19, 11, 6, 17, 16, 13, 8, 18, 9, 14, 12, 5, 2, 4, 20, 7, 1, 15, 10, 3, 19, 11, 6, 17, 16, 8, 18, 9, 14, 13, 12, 5, 2, 4, 20, 1, 7, 15, 10, 3, 19, 11, 6, 17, 16, 8, 18, 9, 14, 13, 12, 5, 2, 4, 20, 1, 7, 15, 10, 3, 19, 11, 6, 17, 16, 8, 18, 9, 14, 13, 12, 5, 2, 4, 20, 1, 7, 15, 10, 3, 19, 11, 6, 17, 8, 16, 18, 9, 14, 13, 12, 5, 2, 4, 20, 1, 7, 15, 10, 3, 19, 6, 11, 17]
bestever    1573    in generation 1334
[16, 13, 8, 14, 18, 9, 12, 5, 4, 2, 20, 7, 15, 1, 10, 3, 19, 6, 11, 17, 16, 13, 14, 8, 18, 9, 12, 5, 2, 4, 20, 7, 15, 1, 10, 3, 19, 11, 6, 17, 16, 13, 14, 8, 18, 9, 12, 5, 2, 4, 20, 7, 15, 1, 10, 3, 19, 11, 6, 17, 16, 13, 8, 18, 9, 14, 12, 5, 2, 4, 20, 7, 1, 15, 10, 3, 19, 11, 6, 17, 16, 13, 8, 18, 9, 14, 12, 5, 2, 4, 20, 7, 1, 15, 10, 3, 19, 11, 6, 17, 16, 8, 18, 16, 8, 9, 14, 13, 12, 5, 2, 4, 20, 1, 7, 15, 10, 3, 19, 11, 6, 17, 18, 9, 14, 13, 12, 5, 2, 4, 20, 1, 7, 15, 10, 3, 19, 11, 6, 17, 16, 8, 18, 9, 14, 13, 12, 5, 2, 4, 20, 1, 7, 15, 10, 3, 19, 11, 6, 16, 8, 18, 17, 9, 14, 13, 12, 5, 2, 4, 20, 1, 7, 15, 10, 3, 19, 11, 6, 17, 8, 16, 18, 9, 14, 13, 12, 5, 2, 4, 20, 1, 7, 15, 10, 3, 19, 6, 11, 17]
bestever    1570    in generation 1445
[16, 13, 8, 14, 18, 9, 12, 5, 4, 2, 20, 7, 15, 1, 10, 3, 19, 11, 17, 6, 16, 13, 14, 8, 18, 9, 12, 5, 2, 4, 20, 7, 15, 1, 10, 3, 19, 11, 17, 6, 16, 13, 14, 8, 18, 9, 12, 5, 2, 4, 20, 7, 15, 1, 10, 3, 19, 11, 17, 6, 16, 13, 8, 18, 9, 14, 12, 5, 2, 4, 20, 7, 1, 15, 10, 3, 19, 11, 17, 6, 16, 13, 8, 18, 9, 14, 12, 5, 2, 4, 20, 7, 1, 15, 10, 3, 19, 11, 17, 6, 16, 8, 18, 9, 14, 13, 12, 5, 2, 4, 20, 1, 7, 15, 10, 3, 19, 11, 17, 6, 16, 8, 18, 9, 14, 13, 12, 5, 2, 4, 20, 1, 7, 15, 10, 3, 19, 11, 17, 6, 16, 8, 18, 9, 14, 13, 12, 5, 2, 4, 20, 1, 7, 15, 10, 3, 19, 11, 17, 6, 16, 8, 18, 9, 14, 13, 12, 5, 2, 4, 20, 1, 7, 15, 10, 3, 19, 11, 17, 6, 8, 16, 18, 9, 14, 13, 12, 5, 2, 4, 20, 1, 7, 15, 10, 3, 19, 11, 17, 6]
bestever    1567    in generation 1552
[16, 13, 8, 14, 18, 9, 12, 5, 4, 2, 20, 7, 15, 1, 3, 10, 19, 11, 17, 6, 16, 13, 14, 8, 18, 9, 12, 5, 2, 4, 20, 7, 15, 1, 3, 10, 19, 11, 17, 6, 16, 13, 14, 8, 18, 9, 12, 5, 2, 4, 20, 7, 15, 1, 3, 10, 19, 11, 17, 6, 16, 13, 8, 18, 9, 14, 12, 5, 2, 4, 20, 7, 1, 15, 3, 10, 19, 11, 17, 6, 16, 13, 8, 18, 9, 14, 12, 5, 2, 4, 20, 7, 1, 15, 3, 10, 19, 11, 17, 6, 16, 8, 18, 9, 14, 13, 12, 5, 2, 4, 20, 1, 7, 15, 3, 10, 19, 11, 17, 6, 16, 8, 18, 9, 14, 13, 12, 5, 2, 4, 20, 1, 7, 15, 3, 10, 19, 11, 17, 6, 16, 8, 18, 9, 14, 13, 12, 5, 2, 4, 20, 1, 7, 15, 3, 10, 19, 11, 17, 6, 16, 8, 18, 9, 14, 13, 12, 5, 2, 4, 20, 1, 7, 15, 3, 10, 19, 11, 17, 6, 8, 16, 18, 9, 14, 13, 12, 5, 2, 4, 20, 1, 7, 15, 3, 10, 19, 11, 17, 6]
bestever    1562    in generation 1658
[16, 13, 8, 14, 18, 9, 12, 5, 4, 2, 20, 3, 7, 15, 1, 10, 19, 11, 17, 6, 16, 13, 14, 8, 18, 9, 12, 5, 2, 4, 20, 3, 7, 15, 1, 10, 19, 11, 17, 6, 16, 13, 14, 8, 18, 9, 12, 5, 2, 4, 20, 3, 7, 15, 1, 10, 19, 11, 17, 6, 16, 13, 8, 18, 9, 14, 12, 5, 2, 4, 20, 3, 7, 1, 15, 10, 19, 11, 17, 6, 16, 13, 8, 18, 9, 14, 12, 5, 2, 4, 20, 3, 7, 1, 15, 10, 19, 11, 17, 6, 16, 8, 18, 9, 14, 13, 12, 5, 2, 4, 20, 3, 1, 7, 15, 10, 19, 11, 17, 6, 16, 8, 18, 9, 14, 13, 12, 5, 2, 4, 20, 3, 1, 7, 15, 10, 19, 11, 17, 6, 16, 8, 18, 9, 14, 13, 12, 5, 2, 4, 20, 3, 1, 7, 15, 10, 19, 11, 17, 6, 16, 8, 18, 9, 14, 13, 12, 5, 2, 4, 20, 3, 1, 7, 15, 10, 19, 11, 17, 6, 8, 16, 18, 9, 14, 13, 12, 5, 2, 4, 20, 3, 1, 7, 15, 10, 19, 11, 17, 6]
bestever    1561    in generation 1765
[16, 13, 8, 14, 18, 9, 4, 12, 5, 2, 20, 3, 7, 15, 1, 10, 19, 11, 17, 6, 16, 13, 14, 8, 18, 9, 12, 4, 5, 2, 20, 3, 7, 15, 1, 10, 19, 11, 17, 6, 16, 13, 14, 8, 18, 9, 12, 4, 5, 2, 20, 3, 7, 15, 1, 10, 19, 11, 17, 6, 16, 13, 8, 18, 9, 14, 12, 4, 5, 2, 20, 3, 7, 1, 15, 10, 19, 11, 17, 6, 16, 13, 8, 18, 9, 14, 12, 4, 5, 2, 20, 3, 7, 1, 15, 10, 19, 11, 17, 6, 16, 8, 18, 9, 14, 13, 12, 4, 5, 2, 20, 3, 1, 7, 15, 10, 19, 11, 17, 6, 16, 8, 18, 9, 14, 13, 12, 4, 5, 2, 20, 3, 1, 7, 15, 10, 19, 11, 17, 6, 16, 8, 18, 9, 14, 13, 12, 4, 5, 2, 20, 3, 1, 7, 15, 10, 19, 11, 17, 6, 16, 8, 18, 9, 14, 13, 12, 4, 5, 2, 20, 3, 1, 7, 15, 10, 19, 11, 17, 6, 8, 16, 18, 9, 14, 13, 12, 4, 5, 2, 20, 3, 1, 7, 15, 10, 19, 11, 17, 6]
bestever    1545    in generation 1867
[14, 16, 13, 8, 18, 9, 4, 12, 5, 2, 20, 3, 7, 15, 1, 10, 19, 11, 17, 6, 14, 16, 13, 8, 18, 9, 12, 4, 5, 2, 20, 3, 7, 15, 1, 10, 19, 11, 17, 6, 14, 16, 13, 8, 18, 9, 12, 4, 5, 2, 20, 3, 7, 15, 1, 10, 19, 11, 17, 6, 14, 16, 13, 8, 18, 9, 12, 4, 5, 2, 20, 3, 7, 1, 15, 10, 19, 11, 17, 6, 14, 16, 13, 8, 18, 9, 12, 4, 5, 2, 20, 3, 7, 1, 15, 10, 19, 11, 17, 6, 14, 16, 8, 18, 9, 13, 12, 4, 5, 2, 20, 3, 1, 7, 15, 10, 19, 11, 17, 6, 14, 16, 8, 18, 9, 13, 12, 4, 5, 2, 20, 3, 1, 7, 15, 10, 19, 11, 17, 6, 14, 16, 8, 18, 9, 13, 12, 4, 5, 2, 20, 3, 1, 7, 15, 10, 19, 11, 17, 6, 14, 16, 8, 18, 9, 13, 12, 4, 5, 2, 20, 3, 1, 7, 15, 10, 19, 11, 17, 6, 14, 8, 16, 18, 9, 13, 12, 4, 5, 2, 20, 3, 1, 7, 15, 10, 19, 11, 17, 6]
bestever    1541    in generation 2104
[16, 14, 13, 8, 18, 9, 12, 5, 4, 2, 20, 3, 15, 1, 10, 19, 11, 7, 17, 6, 16, 14, 13, 8, 18, 9, 12, 5, 2, 4, 20, 3, 15, 1, 10, 19, 11, 7, 17, 6, 16, 14, 13, 8, 18, 9, 12, 5, 2, 4, 20, 3, 15, 1, 10, 19, 11, 7, 17, 6, 16, 14, 13, 8, 18, 9, 12, 5, 2, 4, 20, 3, 1, 15, 10, 19, 11, 17, 7, 6, 16, 14, 8, 18, 9, 13, 12, 5, 2, 4, 20, 3, 1, 15, 10, 19, 11, 17, 7, 6, 16, 14, 8, 18, 9, 13, 12, 5, 2, 4, 20, 3, 1, 15, 10, 19, 11, 17, 7, 6, 16, 14, 8, 18, 9, 13, 12, 5, 2, 4, 20, 3, 1, 15, 10, 19, 11, 17, 7, 6, 16, 14, 8, 18, 9, 13, 12, 5, 2, 4, 20, 3, 1, 15, 10, 19, 11, 17, 7, 6, 16, 14, 8, 18, 9, 13, 12, 5, 2, 4, 20, 3, 1, 15, 10, 19, 11, 17, 7, 6, 16, 14, 8, 18, 9, 13, 12, 5, 2, 4, 20, 3, 1, 15, 10, 19, 11, 17, 7, 6]
bestever    1523    in generation 2213
[16, 14, 13, 8, 18, 9, 12, 5, 3, 4, 2, 20, 15, 1, 10, 19, 11, 7, 17, 6, 16, 14, 13, 8, 18, 9, 12, 5, 3, 2, 4, 20, 15, 1, 10, 19, 11, 17, 7, 6, 16, 14, 13, 8, 18, 9, 12, 5, 3, 2, 4, 20, 15, 1, 10, 19, 11, 17, 7, 6, 16, 14, 8, 18, 9, 13, 12, 5, 3, 2, 4, 20, 1, 15, 10, 19, 11, 17, 7, 6, 16, 14, 8, 18, 9, 13, 12, 5, 3, 2, 4, 20, 1, 15, 10, 19, 11, 17, 7, 6, 16, 14, 8, 18, 9, 13, 12, 5, 3, 2, 4, 20, 1, 15, 10, 19, 11, 17, 7, 6, 16, 14, 8, 18, 9, 13, 12, 5, 3, 2, 4, 20, 1, 15, 10, 19, 11, 17, 7, 6, 16, 14, 8, 18, 9, 13, 12, 5, 3, 2, 4, 20, 1, 15, 10, 19, 11, 17, 7, 6, 16, 14, 8, 18, 9, 13, 12, 5, 3, 2, 4, 20, 1, 15, 10, 19, 11, 17, 7, 6, 16, 14, 8, 18, 9, 13, 12, 5, 3, 2, 4, 20, 1, 15, 10, 19, 11, 17, 7, 6]
bestever    1512    in generation 2432
[14, 16, 13, 9, 8, 18, 12, 5, 4, 2, 20, 15, 1, 10, 3, 19, 11, 7, 17, 6, 14, 16, 13, 9, 8, 18, 12, 5, 2, 4, 20, 15, 1, 10, 3, 19, 11, 17, 7, 6, 14, 16, 13, 9, 8, 18, 12, 5, 2, 4, 20, 15, 1, 10, 3, 19, 11, 17, 7, 6, 14, 16, 9, 8, 18, 13, 12, 5, 2, 4, 20, 1, 15, 10, 3, 19, 11, 17, 7, 6, 14, 16, 9, 8, 18, 13, 12, 5, 2, 4, 20, 1, 15, 10, 3, 19, 11, 17, 7, 6, 14, 16, 9, 8, 18, 13, 12, 5, 2, 4, 20, 1, 15, 10, 3, 19, 11, 17, 7, 6, 14, 16, 9, 8, 18, 13, 12, 5, 2, 4, 20, 1, 15, 3, 10, 19, 11, 17, 7, 6, 14, 16, 9, 8, 18, 13, 12, 5, 2, 4, 20, 1, 15, 3, 10, 19, 11, 17, 7, 6, 14, 16, 9, 8, 18, 13, 12, 5, 2, 4, 20, 1, 15, 3, 10, 19, 11, 17, 7, 6, 14, 16, 9, 8, 18, 13, 12, 5, 2, 4, 20, 1, 15, 3, 10, 19, 11, 17, 7, 6]
bestever    1511    in generation 2441
[14, 16, 13, 9, 8, 18, 12, 5, 4, 2, 20, 15, 1, 10, 3, 19, 11, 7, 17, 6, 14, 16, 13, 9, 8, 18, 12, 5, 2, 4, 20, 15, 1, 10, 3, 19, 11, 17, 7, 6, 14, 16, 13, 9, 8, 18, 12, 5, 2, 4, 20, 15, 1, 10, 3, 19, 11, 17, 7, 6, 14, 16, 9, 8, 18, 13, 12, 5, 2, 4, 20, 1, 15, 10, 3, 19, 11, 14, 16, 9, 8, 18, 13, 12, 5, 2, 4, 20, 1, 15, 10, 3, 17, 7, 6, 14, 16, 9, 8, 18, 13, 12, 5, 2, 4, 20, 1, 15, 19, 11, 17, 7, 6, 14, 16, 9, 8, 18, 13, 12, 5, 2, 4, 20, 1, 15, 3, 10, 19, 11, 17, 7, 6, 14, 16, 9, 8, 18, 13, 12, 5, 2, 4, 20, 1, 15, 3, 10, 3, 10, 19, 11, 17, 7, 6, 19, 11, 17, 7, 6, 14, 16, 9, 8, 18, 13, 12, 5, 2, 4, 20, 1, 15, 3, 10, 19, 11, 17, 7, 6, 14, 16, 9, 8, 18, 13, 12, 5, 2, 4, 20, 1, 15, 3, 10, 19, 11, 17, 7, 6]
bestever    1510    in generation 2565
[14, 16, 13, 9, 8, 18, 12, 4, 2, 20, 15, 1, 10, 3, 19, 11, 5, 7, 17, 6, 14, 16, 13, 9, 8, 18, 12, 2, 4, 20, 15, 1, 10, 3, 19, 11, 5, 17, 7, 6, 14, 16, 13, 9, 8, 18, 12, 2, 4, 20, 15, 1, 10, 3, 19, 11, 5, 17, 7, 6, 14, 16, 9, 8, 18, 13, 12, 2, 4, 20, 1, 15, 10, 3, 19, 11, 5, 17, 7, 6, 14, 16, 9, 8, 18, 13, 12, 2, 4, 20, 1, 15, 10, 3, 19, 11, 5, 17, 7, 6, 14, 16, 9, 8, 18, 13, 12, 2, 4, 20, 1, 15, 3, 10, 19, 11, 5, 17, 7, 6, 14, 16, 9, 8, 18, 13, 12, 2, 4, 20, 1, 15, 3, 10, 19, 11, 5, 17, 7, 6, 14, 16, 9, 8, 18, 13, 12, 2, 4, 20, 1, 15, 3, 10, 19, 11, 5, 17, 7, 6, 14, 16, 9, 8, 18, 13, 12, 2, 4, 20, 1, 15, 3, 10, 19, 11, 5, 17, 7, 6, 14, 16, 9, 8, 18, 13, 12, 2, 4, 20, 1, 15, 3, 10, 19, 11, 5, 17, 7, 6]
bestever    1508    in generation 3256
[14, 16, 13, 9, 8, 12, 4, 2, 20, 15, 1, 10, 3, 19, 11, 5, 7, 18, 17, 6, 14, 16, 13, 9, 8, 12, 2, 4, 20, 15, 1, 10, 3, 19, 11, 5, 17, 18, 7, 6, 14, 16, 13, 9, 8, 12, 2, 4, 20, 15, 1, 10, 3, 19, 11, 5, 17, 18, 7, 6, 14, 16, 9, 8, 13, 12, 2, 4, 20, 1, 15, 10, 3, 19, 11, 5, 18, 17, 7, 6, 14, 16, 9, 8, 13, 12, 2, 4, 20, 1, 15, 10, 3, 19, 11, 5, 18, 17, 7, 6, 14, 16, 9, 8, 13, 12, 2, 4, 20, 1, 15, 3, 10, 19, 11, 5, 18, 17, 7, 6, 14, 16, 9, 8, 13, 12, 2, 4, 20, 1, 15, 3, 10, 19, 11, 5, 18, 17, 7, 6, 14, 16, 9, 8, 13, 12, 2, 4, 20, 1, 15, 3, 10, 19, 11, 5, 18, 17, 7, 6, 14, 16, 8, 9, 13, 12, 2, 4, 20, 1, 15, 3, 10, 19, 11, 5, 18, 17, 7, 6, 16, 9, 14, 8, 13, 12, 2, 4, 20, 1, 15, 3, 10, 19, 11, 5, 18, 17, 7, 6]
bestever    1505    in generation 3401
[14, 16, 13, 4, 9, 8, 12, 2, 20, 15, 1, 10, 3, 19, 11, 5, 7, 18, 17, 6, 14, 16, 13, 9, 4, 8, 12, 2, 20, 15, 1, 10, 3, 19, 11, 5, 17, 18, 7, 6, 14, 16, 13, 9, 4, 8, 12, 2, 20, 15, 1, 10, 3, 19, 11, 5, 18, 17, 7, 6, 14, 16, 9, 8, 4, 13, 12, 2, 20, 1, 15, 10, 3, 19, 11, 5, 18, 17, 7, 6, 14, 16, 9, 8, 4, 13, 12, 2, 20, 1, 15, 10, 3, 19, 11, 5, 18, 17, 7, 6, 14, 16, 9, 8, 4, 13, 12, 2, 20, 1, 15, 3, 10, 19, 11, 5, 18, 17, 7, 6, 14, 16, 9, 8, 4, 13, 12, 2, 20, 1, 15, 3, 10, 19, 11, 5, 18, 17, 7, 6, 14, 16, 8, 9, 4, 13, 12, 2, 20, 1, 15, 3, 10, 19, 11, 5, 18, 17, 7, 6, 14, 16, 8, 9, 4, 13, 12, 2, 20, 1, 15, 3, 10, 19, 11, 5, 18, 17, 7, 6, 16, 9, 14, 8, 4, 13, 12, 2, 20, 1, 15, 3, 10, 19, 11, 5, 18, 17, 7, 6]
bestever    1501    in generation 3520
[14, 16, 13, 4, 9, 8, 12, 2, 20, 15, 10, 1, 19, 3, 11, 5, 18, 17, 7, 6, 14, 16, 13, 9, 4, 8, 12, 2, 20, 15, 10, 1, 19, 3, 11, 5, 17, 18, 7, 6, 14, 16, 13, 9, 4, 8, 12, 2, 20, 15, 10, 1, 19, 3, 11, 5, 18, 17, 7, 6, 14, 16, 9, 8, 4, 13, 12, 2, 20, 15, 1, 10, 19, 3, 11, 5, 18, 17, 7, 6, 14, 16, 9, 8, 4, 13, 12, 2, 20, 15, 1, 10, 19, 3, 11, 5, 18, 17, 7, 6, 14, 16, 9, 8, 4, 13, 12, 2, 20, 15, 1, 10, 3, 19, 11, 5, 18, 17, 7, 6, 14, 16, 9, 8, 4, 13, 12, 2, 20, 15, 1, 10, 3, 19, 11, 5, 18, 17, 7, 6, 16, 14, 8, 9, 4, 13, 12, 2, 20, 15, 1, 10, 3, 19, 11, 5, 18, 17, 7, 6, 14, 16, 8, 9, 4, 13, 12, 2, 20, 15, 1, 10, 3, 19, 11, 5, 18, 17, 7, 6, 16, 9, 14, 8, 4, 13, 12, 2, 20, 15, 1, 10, 3, 19, 11, 5, 18, 17, 7, 6]
bestever    1498    in generation 3632
[14, 16, 13, 4, 9, 8, 12, 2, 20, 15, 1, 10, 19, 3, 11, 5, 18, 17, 7, 6, 14, 16, 13, 9, 4, 8, 12, 2, 20, 15, 1, 10, 19, 3, 11, 5, 17, 18, 7, 6, 14, 16, 13, 9, 4, 8, 12, 2, 20, 15, 1, 10, 19, 3, 11, 5, 18, 17, 7, 6, 14, 16, 9, 8, 4, 13, 12, 2, 20, 1, 15, 10, 19, 3, 11, 5, 18, 17, 7, 6, 14, 16, 9, 8, 4, 13, 12, 2, 20, 1, 15, 10, 19, 3, 11, 5, 18, 17, 7, 6, 14, 16, 9, 8, 4, 13, 12, 2, 20, 1, 15, 10, 3, 19, 11, 5, 18, 17, 7, 6, 14, 16, 9, 8, 4, 13, 12, 2, 20, 1, 15, 10, 3, 19, 11, 5, 18, 17, 7, 6, 16, 14, 8, 9, 4, 13, 12, 2, 20, 1, 15, 10, 3, 19, 11, 5, 18, 17, 7, 6, 14, 16, 8, 9, 4, 13, 12, 2, 20, 1, 15, 10, 3, 19, 11, 5, 18, 17, 7, 6, 16, 9, 14, 8, 4, 13, 12, 2, 20, 1, 15, 10, 3, 19, 11, 5, 18, 17, 7, 6]
bestever    1493    in generation 3745
[14, 16, 13, 4, 9, 8, 12, 2, 20, 15, 1, 10, 19, 3, 11, 17, 5, 18, 7, 6, 14, 16, 13, 9, 4, 8, 12, 2, 20, 15, 1, 10, 19, 3, 17, 11, 5, 18, 7, 6, 14, 16, 13, 9, 4, 8, 12, 2, 20, 15, 1, 10, 19, 3, 11, 17, 5, 18, 7, 6, 14, 16, 9, 8, 4, 13, 12, 2, 20, 1, 15, 10, 19, 3, 11, 17, 5, 18, 7, 6, 14, 16, 9, 8, 4, 13, 12, 2, 20, 1, 15, 10, 19, 3, 11, 17, 5, 18, 7, 6, 14, 16, 9, 8, 4, 13, 12, 2, 20, 1, 15, 10, 3, 19, 11, 17, 5, 18, 7, 6, 16, 14, 8, 9, 4, 13, 12, 2, 20, 1, 15, 10, 3, 19, 11, 17, 5, 18, 7, 6, 16, 14, 8, 9, 4, 13, 12, 2, 20, 1, 15, 10, 3, 19, 11, 17, 5, 18, 7, 6, 14, 16, 8, 9, 4, 13, 12, 2, 20, 1, 15, 10, 3, 19, 11, 17, 5, 18, 7, 6, 16, 9, 14, 8, 4, 13, 12, 2, 20, 1, 15, 10, 3, 19, 11, 17, 5, 18, 7, 6]
bestever    1490    in generation 3847
[14, 16, 13, 4, 9, 8, 12, 2, 20, 15, 1, 10, 19, 11, 17, 3, 5, 18, 7, 6, 14, 16, 13, 9, 4, 8, 12, 2, 20, 15, 1, 10, 19, 17, 11, 3, 5, 18, 7, 6, 14, 16, 13, 9, 4, 8, 12, 2, 20, 15, 1, 10, 19, 11, 17, 3, 5, 18, 7, 6, 14, 16, 9, 8, 4, 13, 12, 2, 20, 1, 15, 10, 19, 11, 17, 3, 5, 18, 7, 6, 14, 16, 9, 8, 4, 13, 12, 2, 20, 1, 15, 10, 19, 11, 17, 3, 5, 18, 7, 6, 14, 16, 8, 9, 4, 13, 12, 2, 20, 1, 15, 10, 19, 11, 3, 17, 5, 18, 7, 6, 16, 14, 8, 9, 4, 13, 12, 2, 20, 1, 15, 10, 19, 11, 3, 17, 5, 18, 7, 6, 16, 14, 8, 9, 4, 13, 12, 2, 20, 1, 15, 10, 19, 11, 3, 17, 5, 18, 7, 6, 14, 16, 8, 9, 4, 13, 12, 2, 20, 1, 15, 10, 19, 11, 3, 17, 5, 18, 7, 6, 16, 9, 14, 8, 4, 13, 12, 2, 20, 1, 15, 10, 19, 11, 3, 17, 5, 18, 7, 6]
bestever    1487    in generation 3989
[14, 16, 13, 4, 9, 8, 12, 20, 2, 10, 15, 1, 19, 11, 17, 3, 5, 18, 7, 6, 14, 16, 13, 9, 4, 8, 12, 20, 2, 10, 15, 1, 19, 11, 3, 17, 5, 18, 7, 6, 14, 16, 13, 9, 4, 8, 12, 20, 2, 10, 15, 1, 19, 11, 3, 17, 5, 18, 7, 6, 14, 16, 9, 8, 4, 13, 12, 20, 2, 10, 1, 15, 19, 11, 3, 17, 5, 18, 7, 6, 14, 16, 9, 8, 4, 13, 12, 20, 2, 10, 1, 15, 19, 11, 3, 17, 5, 18, 7, 6, 14, 16, 8, 9, 4, 13, 12, 20, 2, 10, 1, 15, 19, 11, 3, 17, 5, 18, 7, 6, 14, 16, 8, 9, 4, 13, 12, 20, 2, 10, 1, 15, 19, 11, 3, 17, 5, 18, 7, 6, 14, 16, 8, 9, 4, 13, 12, 20, 2, 10, 1, 15, 19, 11, 3, 17, 5, 18, 7, 6, 14, 16, 8, 9, 4, 13, 12, 20, 2, 10, 1, 15, 19, 11, 3, 17, 5, 18, 7, 6, 14, 16, 9, 8, 4, 13, 12, 20, 2, 10, 1, 15, 19, 11, 3, 17, 5, 18, 7, 6]
bestever    1486    in generation 4095
[14, 16, 13, 4, 9, 8, 12, 20, 2, 10, 19, 15, 1, 11, 3, 17, 5, 18, 7, 6, 14, 16, 13, 9, 4, 8, 12, 20, 2, 10, 19, 15, 1, 11, 3, 17, 5, 18, 7, 6, 14, 16, 13, 9, 4, 8, 12, 20, 2, 10, 19, 15, 1, 11, 3, 17, 5, 18, 7, 6, 14, 16, 9, 8, 4, 13, 12, 20, 2, 10, 19, 1, 15, 11, 3, 17, 5, 18, 7, 6, 14, 16, 9, 8, 4, 13, 12, 20, 2, 10, 19, 1, 15, 11, 3, 17, 5, 18, 7, 6, 14, 16, 8, 9, 4, 13, 12, 20, 2, 10, 19, 1, 15, 11, 3, 17, 5, 18, 7, 6, 14, 16, 8, 9, 4, 13, 12, 20, 2, 10, 19, 1, 15, 11, 3, 17, 5, 18, 7, 6, 14, 16, 8, 9, 4, 13, 12, 20, 2, 10, 19, 1, 15, 11, 3, 17, 5, 18, 7, 6, 14, 16, 8, 9, 4, 13, 12, 20, 2, 10, 19, 1, 15, 11, 3, 17, 5, 18, 7, 6, 14, 16, 9, 8, 4, 13, 12, 20, 2, 10, 19, 1, 15, 11, 3, 17, 5, 18, 7, 6]
bestever    1485    in generation 4202
[14, 16, 13, 4, 9, 8, 12, 20, 2, 10, 19, 15, 11, 3, 17, 5, 1, 18, 7, 6, 14, 16, 13, 9, 4, 8, 12, 20, 2, 10, 19, 15, 11, 3, 17, 5, 18, 1, 7, 6, 14, 16, 13, 9, 4, 8, 12, 20, 2, 10, 19, 15, 11, 3, 17, 5, 18, 1, 7, 6, 14, 16, 9, 8, 4, 13, 12, 20, 2, 10, 19, 15, 11, 3, 17, 5, 1, 18, 7, 6, 14, 16, 9, 8, 4, 13, 12, 20, 2, 10, 19, 15, 11, 3, 17, 5, 1, 18, 7, 6, 14, 16, 8, 9, 4, 13, 12, 20, 2, 10, 19, 15, 11, 3, 17, 5, 1, 18, 7, 6, 14, 16, 8, 9, 4, 13, 12, 20, 2, 10, 19, 15, 11, 3, 17, 5, 1, 18, 7, 6, 14, 16, 8, 9, 4, 13, 12, 20, 2, 10, 19, 15, 11, 3, 17, 5, 1, 18, 7, 6, 14, 16, 8, 9, 4, 13, 12, 20, 2, 10, 19, 15, 11, 3, 17, 5, 1, 18, 7, 6, 14, 16, 9, 8, 4, 13, 12, 20, 2, 10, 19, 15, 11, 3, 17, 5, 1, 18, 7, 6]
bestever    1484    in generation 4360
[2, 14, 16, 13, 4, 9, 8, 12, 20, 10, 19, 11, 15, 3, 17, 5, 1, 18, 7, 6, 2, 14, 16, 13, 9, 4, 8, 12, 20, 10, 19, 11, 15, 3, 17, 5, 1, 18, 7, 6, 2, 14, 16, 13, 9, 4, 8, 12, 20, 10, 19, 11, 15, 3, 17, 5, 1, 18, 7, 6, 2, 14, 16, 9, 8, 4, 13, 12, 20, 10, 19, 11, 15, 3, 17, 5, 1, 18, 7, 6, 2, 14, 16, 8, 9, 4, 13, 12, 20, 10, 19, 11, 15, 3, 17, 5, 1, 18, 7, 6, 2, 14, 16, 8, 9, 4, 13, 12, 20, 10, 19, 11, 15, 3, 17, 5, 1, 18, 7, 6, 2, 14, 16, 8, 9, 4, 13, 12, 20, 10, 19, 11, 15, 3, 17, 5, 1, 18, 7, 6, 2, 14, 16, 8, 9, 4, 13, 12, 20, 10, 19, 11, 15, 3, 17, 5, 1, 18, 7, 6, 2, 14, 16, 8, 9, 4, 13, 12, 20, 10, 19, 11, 15, 3, 17, 5, 1, 18, 7, 6, 2, 14, 16, 9, 8, 4, 13, 12, 20, 10, 19, 11, 15, 3, 17, 5, 1, 18, 7, 6]
bestever    1467    in generation 4453
[2, 14, 16, 13, 4, 9, 8, 12, 20, 10, 19, 11, 15, 3, 2, 14, 16, 13, 9, 4, 8, 12, 20, 2, 14, 16, 13, 9, 4, 8, 12, 2, 14, 16, 9, 8, 10, 19, 4, 13, 12, 2, 14, 16, 20, 10, 9, 8, 4, 13, 12, 20, 10, 19, 11, 15, 3, 17, 5, 1, 18, 7, 6, 19, 11, 15, 3, 17, 5, 1, 18, 7, 6, 11, 17, 5, 1, 18, 7, 6, 20, 10, 19, 11, 15, 3, 17, 5, 1, 2, 14, 16, 8, 9, 4, 13, 12, 20, 10, 19, 11, 2, 14, 16, 8, 9, 15, 3, 2, 14, 2, 14, 18, 7, 6, 15, 3, 17, 5, 1, 18, 7, 6, 16, 8, 9, 4, 13, 12, 20, 10, 19, 11, 16, 8, 9, 4, 13, 12, 20, 10, 19, 11, 15, 3, 17, 5, 1, 18, 7, 6, 4, 13, 12, 20, 10, 19, 11, 17, 5, 15, 3, 17, 5, 1, 18, 7, 6, 1, 15, 3, 17, 5, 1, 18, 7, 6, 18, 7, 6, 2, 14, 16, 9, 8, 4, 13, 12, 20, 10, 19, 11, 15, 3, 17, 5, 1, 18, 7, 6]
